\ This file has been generated by DOcplex
\ ENCODING=ISO-8859-1
\Problem name: random_problem.lp

Minimize
 obj: - 0.008432101971 x0 - 0.004216050986 x1 - 0.002108025493 x2
      - 0.002143064074 x3 - 0.001071532037 x4 - 0.000535766018 x5 + [
      0.004359499188 x0^2 + 0.004359499188 x0*x1 + 0.002179749594 x0*x2
      + 0.001710650772 x0*x3 + 0.000855325386 x0*x4 + 0.000427662693 x0*x5
      + 0.001089874797 x1^2 + 0.001089874797 x1*x2 + 0.000855325386 x1*x3
      + 0.000427662693 x1*x4 + 0.000213831347 x1*x5 + 0.000272468699 x2^2
      + 0.000427662693 x2*x3 + 0.000213831347 x2*x4 + 0.000106915673 x2*x5
      + 0.004556980930 x3^2 + 0.004556980930 x3*x4 + 0.002278490465 x3*x5
      + 0.001139245233 x4^2 + 0.001139245233 x4*x5 + 0.000284811308 x5^2 ]/2
Subject To
 c0: 4 x0 + 2 x1 + x2 + 4 x3 + 2 x4 + x5 = 7

Bounds
 0 <= x0 <= 1
 0 <= x1 <= 1
 0 <= x2 <= 1
 0 <= x3 <= 1
 0 <= x4 <= 1
 0 <= x5 <= 1

Binaries
 x0 x1 x2 x3 x4 x5
End
